55
3 0 1
3 2 4
4 0 2
4 2 4
5 1 3
5 2 7
6 0 7
6 1 6
6 3 6
7 2 5
7 4 4
7 5 8
7 6 8
8 2 5
8 6 4
9 1 7
9 2 3
9 3 5
9 5 9
9 6 3
10 0 10
10 1 4
10 2 1
10 3 9
10 6 9
10 7 5
10 8 5
10 9 3
11 0 8
11 2 8
11 5 5
11 7 9
11 8 10
12 0 7
12 1 7
12 2 10
12 5 3
12 11 2
13 3 4
13 4 9
13 6 1
13 8 5
13 11 9
14 0 3
14 1 9
14 2 3
14 3 8
14 5 8
14 8 5
14 10 9
14 12 5
15 2 5
15 6 3
15 7 9
15 13 6
16 0 7
16 2 3
16 3 4
16 4 3
16 6 10
16 7 4
16 8 1
16 9 3
16 11 1
17 0 5
17 1 6
17 4 4
17 5 2
17 6 5
17 7 6
17 11 5
17 13 3
17 14 6
17 16 6
18 1 10
18 3 3
18 9 8
18 10 8
18 12 7
18 13 10
19 0 7
19 1 2
19 3 4
19 6 4
19 7 4
19 9 4
19 10 7
19 12 4
19 14 10
19 16 6
19 17 10
19 18 10
20 0 6
20 1 8
20 2 6
20 4 9
20 5 8
20 9 7
20 10 2
20 11 7
20 16 1
20 17 7
20 18 3
21 0 5
21 1 3
21 4 2
21 9 5
21 11 10
21 14 9
21 15 2
21 16 6
21 18 8
21 20 2
22 0 9
22 2 9
22 3 1
22 4 8
22 5 9
22 7 7
22 8 4
22 14 5
22 18 5
22 20 3
22 21 4
23 0 9
23 4 5
23 5 1
23 6 8
23 7 2
23 8 2
23 9 1
23 10 8
23 15 4
23 17 5
23 20 2
23 21 3
23 22 6
24 4 8
24 5 7
24 10 3
24 11 9
24 12 1
24 14 10
24 15 9
24 16 6
24 17 9
24 21 8
25 0 8
25 2 7
25 3 5
25 7 10
25 8 10
25 10 8
25 12 9
25 13 1
25 15 6
25 18 3
25 19 9
25 22 10
26 0 6
26 1 9
26 3 3
26 5 5
26 8 6
26 10 1
26 11 8
26 14 8
26 16 2
26 18 8
26 19 2
26 20 9
27 0 7
27 1 8
27 2 4
27 3 10
27 4 2
27 5 9
27 6 2
27 9 3
27 10 9
27 11 3
27 17 9
27 20 10
27 25 2
27 26 1
28 3 10
28 5 10
28 6 4
28 9 2
28 11 3
28 12 1
28 14 8
28 15 8
28 16 3
28 17 9
28 18 6
28 21 8
28 22 8
28 23 7
28 24 9
28 25 7
28 26 2
29 4 7
29 6 9
29 8 4
29 11 10
29 14 2
29 15 10
29 21 3
29 22 2
29 23 1
29 24 5
29 25 6
29 28 5
30 2 7
30 3 8
30 6 7
30 8 7
30 10 2
30 12 8
30 15 7
30 16 1
30 19 5
30 20 10
30 21 5
30 25 6
30 29 9
31 0 8
31 1 5
31 2 9
31 3 1
31 4 5
31 9 3
31 12 4
31 13 2
31 14 10
31 16 5
31 17 8
31 20 1
31 21 3
31 22 10
31 24 6
31 25 3
31 26 10
31 27 1
31 28 8
31 29 8
32 2 10
32 4 8
32 5 2
32 11 1
32 16 7
32 17 8
32 20 8
32 21 7
32 24 10
32 25 3
32 26 1
32 27 2
32 28 4
32 29 6
33 0 4
33 1 4
33 3 3
33 8 6
33 9 8
33 11 2
33 12 1
33 13 8
33 14 7
33 16 6
33 19 7
33 20 9
33 21 5
33 23 9
33 24 3
33 25 8
33 28 7
33 29 5
33 31 7
34 1 2
34 2 3
34 3 7
34 6 7
34 7 2
34 8 7
34 9 5
34 11 9
34 12 3
34 15 3
34 16 4
34 18 4
34 22 6
34 23 7
34 24 1
34 26 8
34 27 4
34 29 2
34 30 10
35 1 9
35 2 1
35 5 7
35 7 6
35 8 2
35 9 7
35 11 1
35 14 1
35 15 9
35 17 2
35 20 1
35 23 4
35 24 4
35 26 1
35 28 1
35 29 9
35 31 4
35 32 1
35 33 3
36 2 1
36 4 2
36 5 3
36 6 8
36 8 6
36 9 7
36 10 5
36 12 9
36 14 6
36 16 8
36 17 10
36 19 6
36 21 1
36 22 3
36 23 3
36 24 8
36 25 5
36 28 5
36 29 9
36 30 8
36 35 10
37 1 1
37 2 5
37 3 3
37 5 2
37 6 7
37 8 6
37 12 7
37 14 5
37 15 9
37 17 7
37 18 6
37 23 1
37 24 9
37 26 9
37 28 5
37 29 5
37 30 2
37 31 10
37 32 10
37 33 5
37 34 1
37 35 2
38 2 6
38 3 8
38 7 9
38 13 9
38 15 1
38 16 5
38 17 4
38 18 8
38 25 4
38 27 10
38 36 8
38 37 5
39 5 2
39 6 1
39 11 6
39 16 6
39 23 9
39 25 10
39 31 2
39 32 6
39 34 8
39 38 10
40 4 3
40 5 3
40 6 1
40 7 1
40 8 1
40 10 10
40 11 2
40 13 6
40 17 9
40 18 7
40 19 4
40 22 10
40 23 1
40 24 3
40 28 7
40 29 5
40 30 1
40 34 1
40 35 1
40 36 8
40 37 4
40 38 10
41 3 4
41 4 10
41 5 9
41 6 4
41 7 5
41 12 2
41 14 4
41 20 7
41 24 4
41 26 5
41 31 7
41 33 10
41 37 10
41 38 4
42 1 2
42 2 8
42 3 10
42 4 9
42 9 2
42 12 10
42 13 10
42 15 3
42 16 3
42 19 8
42 20 2
42 22 1
42 24 1
42 26 10
42 27 7
42 28 3
42 31 8
42 32 5
42 33 4
42 34 10
42 36 9
42 37 4
42 38 4
42 39 4
43 1 10
43 2 2
43 8 8
43 9 4
43 10 2
43 11 1
43 12 2
43 13 2
43 15 8
43 16 3
43 18 7
43 19 1
43 20 7
43 24 1
43 26 10
43 27 3
43 39 6
43 42 7
44 0 10
44 3 5
44 4 7
44 7 6
44 10 5
44 13 8
44 15 10
44 16 8
44 20 8
44 21 9
44 24 5
44 29 4
44 30 9
44 31 4
44 35 9
44 36 7
44 39 3
44 40 4
44 41 2
44 43 9
45 1 1
45 2 9
45 3 1
45 4 4
45 12 6
45 18 8
45 19 7
45 21 3
45 22 7
45 23 1
45 24 8
45 28 5
45 31 3
45 32 4
45 33 6
45 34 1
45 35 10
45 36 1
45 38 9
45 39 2
45 40 1
45 41 10
46 0 3
46 2 9
46 3 5
46 4 10
46 9 10
46 11 4
46 12 3
46 16 10
46 17 3
46 19 1
46 21 2
46 22 4
46 24 1
46 30 1
46 31 4
46 32 3
46 33 4
46 34 10
46 39 8
46 43 8
47 2 4
47 3 4
47 5 9
47 6 8
47 7 1
47 8 1
47 9 7
47 12 3
47 13 9
47 14 4
47 17 10
47 18 2
47 19 9
47 29 9
47 30 10
47 32 9
47 33 7
47 34 5
47 41 9
47 42 5
48 1 2
48 4 4
48 10 5
48 12 4
48 13 10
48 14 1
48 15 4
48 16 3
48 18 6
48 19 3
48 20 10
48 21 4
48 22 8
48 23 8
48 24 2
48 25 2
48 26 9
48 27 6
48 28 7
48 30 5
48 31 6
48 36 10
48 37 8
48 38 6
48 43 5
48 44 3
48 45 10
49 1 2
49 3 1
49 8 7
49 9 3
49 13 1
49 14 5
49 15 8
49 16 4
49 21 10
49 23 6
49 27 9
49 29 10
49 30 1
49 32 7
49 34 5
49 36 4
49 39 8
49 40 10
49 41 5
49 44 2
49 45 3
49 48 10
50 1 10
50 3 10
50 4 9
50 5 8
50 7 8
50 8 3
50 10 6
50 11 1
50 12 8
50 13 6
50 15 4
50 17 3
50 18 4
50 21 3
50 22 8
50 25 3
50 27 7
50 28 5
50 32 3
50 33 4
50 35 6
50 36 2
50 37 1
50 39 2
50 40 4
50 41 1
50 42 1
50 45 6
50 46 8
50 47 8
50 48 7
51 1 6
51 3 2
51 4 1
51 5 4
51 7 1
51 9 10
51 10 4
51 13 2
51 14 1
51 17 4
51 18 3
51 22 1
51 25 7
51 27 8
51 29 8
51 33 7
51 36 9
51 40 1
51 43 8
51 47 1
52 0 2
52 1 2
52 3 8
52 4 6
52 8 1
52 9 1
52 10 3
52 12 3
52 15 1
52 16 7
52 19 7
52 20 3
52 23 9
52 25 4
52 26 4
52 28 4
52 31 6
52 35 9
52 36 4
52 37 2
52 38 4
52 39 2
52 40 1
52 41 3
52 49 10
52 51 6
53 3 3
53 5 8
53 6 10
53 7 7
53 9 10
53 13 10
53 18 4
53 19 6
53 20 5
53 21 10
53 22 6
53 25 5
53 26 1
53 28 7
53 30 5
53 31 8
53 32 6
53 33 6
53 36 6
53 39 9
53 40 8
53 43 4
53 44 7
53 45 8
53 46 6
53 47 7
53 49 9
53 50 10
54 1 3
54 2 4
54 3 6
54 6 8
54 7 8
54 10 10
54 12 5
54 13 8
54 17 7
54 18 8
54 19 4
54 22 5
54 24 6
54 28 2
54 33 4
54 37 3
54 40 5
54 43 3
54 45 7
54 47 5
54 51 4
54 53 5
